logs/2026_03_24_13_36_40_set_vm-3-t1_vm-3-t1_s002_g001_max.log
[2026-03-24T13:36:40.860Z] Pipeline "set_vm-3-t1_vm-3-t1_s002_g001" → 2026_03_24_13_36_40_set_vm-3-t1_vm-3-t1_s002_g001_max.sol
Set parameter Username
Set parameter LicenseID to value 2796068
Set parameter LogFile to value "gurobi.log"
Using license file /opt/gurobi/gurobi.lic
Academic license - for non-commercial use only - expires 2027-03-23

Gurobi Optimizer version 13.0.1 build v13.0.1rc0 (linux64 - "Ubuntu 24.04.4 LTS")
Copyright (c) 2026, Gurobi Optimization, LLC

Warning: Duplicate section found (read 'binary') - Is a variable name equal to an LP file format keyword?
Warning: Duplicate section found (read 'binary') - Is a variable name equal to an LP file format keyword?
Warning: Duplicate section found (read 'binary') - Is a variable name equal to an LP file format keyword?
Warning: Duplicate section found (read 'binary') - Is a variable name equal to an LP file format keyword?
Warning: Duplicate section found (read 'binary') - Is a variable name equal to an LP file format keyword?
Warning: Duplicate section found (read 'binary') - Is a variable name equal to an LP file format keyword?
Warning: Duplicate section found (read 'binary') - Is a variable name equal to an LP file format keyword?
Warning: Duplicate section found (read 'binary') - Is a variable name equal to an LP file format keyword?
Warning: Duplicate section found (read 'binary') - Is a variable name equal to an LP file format keyword?
Warning: Duplicate section found (read 'binary') - Is a variable name equal to an LP file format keyword?
Warning: Further warnings of this type will be omitted.
Read LP format model from file /root/bgw/data/uploads/2026_03_24_13_36_40_set_vm-3-t1_vm-3-t1_s002_g001_max.lp
Reading time = 0.00 seconds
: 896 rows, 156 columns, 2471 nonzeros

Using Gurobi shared library /opt/gurobi1301/linux64/lib/libgurobi.so.13.0.1

CPU model: AMD EPYC-Genoa Processor, instruction set [SSE2|AVX|AVX2|AVX512]
Thread count: 16 physical cores, 16 logical processors, using up to 16 threads

Optimize a model with 896 rows, 156 columns and 2471 nonzeros (Max)
Model fingerprint: 0x256cef67
Model has 36 linear objective coefficients
Variable types: 48 continuous, 108 integer (108 binary)
Coefficient statistics:
  Matrix range     [1e+00, 1e+01]
  Objective range  [1e+00, 1e+00]
  Bounds range     [1e+00, 1e+00]
  RHS range        [1e+00, 1e+01]

Found heuristic solution: objective 36.0000000
Presolve removed 403 rows and 59 columns
Presolve time: 0.00s
Presolved: 493 rows, 97 columns, 1560 nonzeros
Variable types: 0 continuous, 97 integer (88 binary)
Found heuristic solution: objective 60.0000000

Root relaxation: objective 1.910000e+02, 93 iterations, 0.00 seconds (0.00 work units)

    Nodes    |    Current Node    |     Objective Bounds      |     Work
 Expl Unexpl |  Obj  Depth IntInf | Incumbent    BestBd   Gap | It/Node Time

     0     0  191.00000    0   44   60.00000  191.00000   218%     -    0s
H    0     0                      73.0000000  191.00000   162%     -    0s
H    0     0                      76.0000000  191.00000   151%     -    0s
H    0     0                      83.0000000  191.00000   130%     -    0s
     0     0  191.00000    0   40   83.00000  191.00000   130%     -    0s
H    0     0                      86.0000000  191.00000   122%     -    0s
     0     0  191.00000    0   42   86.00000  191.00000   122%     -    0s
     0     0  191.00000    0   39   86.00000  191.00000   122%     -    0s
H    0     0                      92.0000000  188.00000   104%     -    0s
     0     0  188.00000    0   42   92.00000  188.00000   104%     -    0s
     0     0  188.00000    0   38   92.00000  188.00000   104%     -    0s
     0     0  188.00000    0   43   92.00000  188.00000   104%     -    0s
     0     0  188.00000    0   38   92.00000  188.00000   104%     -    0s
     0     0  185.15000    0   42   92.00000  185.15000   101%     -    0s
     0     0  184.00000    0   43   92.00000  184.00000   100%     -    0s
     0     0  184.00000    0   42   92.00000  184.00000   100%     -    0s
     0     0  184.00000    0   42   92.00000  184.00000   100%     -    0s
     0     0  184.00000    0   42   92.00000  184.00000   100%     -    0s
     0     0  184.00000    0   32   92.00000  184.00000   100%     -    0s
     0     0  183.30000    0   40   92.00000  183.30000  99.2%     -    0s
     0     0  183.30000    0   40   92.00000  183.30000  99.2%     -    0s
     0     0  182.00000    0   40   92.00000  182.00000  97.8%     -    0s
     0     0  182.00000    0   38   92.00000  182.00000  97.8%     -    0s
H    0     0                      93.0000000  182.00000  95.7%     -    0s
H    0     0                      99.0000000  182.00000  83.8%     -    0s
     0     2  182.00000    0   38   99.00000  182.00000  83.8%     -    0s

Cutting planes:
  Inf proof: 3

Explored 25778 nodes (447081 simplex iterations) in 1.38 seconds (1.89 work units)
Thread count was 16 (of 16 available processors)

Solution count 10: 99 99 99 ... 73

Optimal solution found (tolerance 1.00e-04)
Best objective 9.900000000000e+01, best bound 9.900000000000e+01, gap 0.0000%

Wrote result file '/root/bgw/data/results/2026_03_24_13_36_40_set_vm-3-t1_vm-3-t1_s002_g001_max.sol'

